54
raw_data/mm-rcpsp/MMLIB50/J5011_4.mm
Time limit set to 60 seconds
Running CP solver
/home/omastto1/General-Optimization-Solver/src/solvers/mmrcpsp.py:42(stream:276:6): Warning: Cumulative expression 'pulse': height is zero, expression is zero everywhere.
                                                                                               VarCumulAtom_419 = pulse(task_0_mode_0, 0)
/home/omastto1/General-Optimization-Solver/src/solvers/mmrcpsp.py:42(stream:276:3910): Warning: Cumulative expression 'pulse': height is zero, expression is zero everywhere.
                                                                                                  VarCumulAtom_570 = pulse(task_51_mode_0, 0)
/home/omastto1/General-Optimization-Solver/src/solvers/mmrcpsp.py:42(stream:277:6): Warning: Cumulative expression 'pulse': height is zero, expression is zero everywhere.
                                                                                               VarCumulAtom_574 = pulse(task_0_mode_0, 0)
/home/omastto1/General-Optimization-Solver/src/solvers/mmrcpsp.py:42(stream:277:3907): Warning: Cumulative expression 'pulse': height is zero, expression is zero everywhere.
                                                                                                  VarCumulAtom_725 = pulse(task_51_mode_0, 0)
 ! --------------------------------------------------- CP Optimizer 20.1.0.0 --
 ! Minimization problem - 205 variables, 290 constraints
 ! TimeLimit            = 60
 ! Workers              = 14
 ! LogVerbosity         = Terse
 ! Initial process time : 0.00s (0.00s extraction + 0.00s propagation)
 !  . Log search space  : 515.3 (before), 515.3 (after)
 !  . Memory usage      : 1.3 MB (before), 1.3 MB (after)
 ! Using parallel search with 14 workers.
 ! ----------------------------------------------------------------------------
 !          Best Branches  Non-fixed    W       Branch decision
                        0        205                 -
 + New bound is 20
 ! Using iterative diving.
 ! Using temporal relaxation.
 *            47      112  0.87s        1      (gap is 57.45%)
 *            46      320  0.87s        1      (gap is 56.52%)
 *            36      512  0.87s        1      (gap is 44.44%)
 *            30      922  0.87s        1      (gap is 33.33%)
 *            29     1097  0.87s        1      (gap is 31.03%)
 *            28     1450  0.87s        5      (gap is 28.57%)
 *            27     2015  0.87s        6      (gap is 25.93%)
 ! Using failure-directed search.
 *            26    22675  5.42s        4      (gap is 23.08%)
 *            25    58858  14.68s       5      (gap is 20.00%)
 *            24    66099  27.32s       1      (gap is 16.67%)
 ! ----------------------------------------------------------------------------
 ! Search terminated by limit, 10 solutions found.
 ! Best objective         : 24 (gap is 16.67%)
 ! Best bound             : 20
 ! ----------------------------------------------------------------------------
 ! Number of branches     : 5444846
 ! Number of fails        : 1213347
 ! Total memory usage     : 19.4 MB (19.2 MB CP Optimizer + 0.2 MB Concert)
 ! Time spent in solve    : 60.03s (60.03s engine + 0.00s extraction)
 ! Search speed (br. / s) : 90717.2
 ! ----------------------------------------------------------------------------
task_0: (start=0, end=0, size=0, length=0)
Task 0 is scheduled in mode 0 from 0 to 0
task_1: (start=0, end=4, size=4, length=4)
Task 1 is scheduled in mode 0 from 0 to 4
task_2: (start=0, end=8, size=8, length=8)
Task 2 is scheduled in mode 2 from 0 to 8
task_3: (start=9, end=10, size=1, length=1)
Task 3 is scheduled in mode 0 from 9 to 10
task_4: (start=4, end=7, size=3, length=3)
Task 4 is scheduled in mode 0 from 4 to 7
task_5: (start=3, end=4, size=1, length=1)
Task 5 is scheduled in mode 1 from 3 to 4
task_6: (start=3, end=7, size=4, length=4)
Task 6 is scheduled in mode 0 from 3 to 7
task_7: (start=1, end=3, size=2, length=2)
Task 7 is scheduled in mode 0 from 1 to 3
task_8: (start=3, end=9, size=6, length=6)
Task 8 is scheduled in mode 1 from 3 to 9
task_9: (start=0, end=4, size=4, length=4)
Task 9 is scheduled in mode 0 from 0 to 4
task_10: (start=1, end=7, size=6, length=6)
Task 10 is scheduled in mode 2 from 1 to 7
task_11: (start=4, end=8, size=4, length=4)
Task 11 is scheduled in mode 0 from 4 to 8
task_12: (start=0, end=1, size=1, length=1)
Task 12 is scheduled in mode 0 from 0 to 1
task_13: (start=7, end=11, size=4, length=4)
Task 13 is scheduled in mode 0 from 7 to 11
task_14: (start=7, end=8, size=1, length=1)
Task 14 is scheduled in mode 0 from 7 to 8
task_15: (start=0, end=3, size=3, length=3)
Task 15 is scheduled in mode 0 from 0 to 3
task_16: (start=8, end=9, size=1, length=1)
Task 16 is scheduled in mode 0 from 8 to 9
task_17: (start=8, end=12, size=4, length=4)
Task 17 is scheduled in mode 0 from 8 to 12
task_18: (start=10, end=12, size=2, length=2)
Task 18 is scheduled in mode 0 from 10 to 12
task_19: (start=7, end=11, size=4, length=4)
Task 19 is scheduled in mode 0 from 7 to 11
task_20: (start=11, end=12, size=1, length=1)
Task 20 is scheduled in mode 0 from 11 to 12
task_21: (start=10, end=12, size=2, length=2)
Task 21 is scheduled in mode 1 from 10 to 12
task_22: (start=4, end=12, size=8, length=8)
Task 22 is scheduled in mode 2 from 4 to 12
task_23: (start=0, end=3, size=3, length=3)
Task 23 is scheduled in mode 0 from 0 to 3
task_24: (start=4, end=12, size=8, length=8)
Task 24 is scheduled in mode 1 from 4 to 12
task_25: (start=12, end=14, size=2, length=2)
Task 25 is scheduled in mode 0 from 12 to 14
task_26: (start=11, end=12, size=1, length=1)
Task 26 is scheduled in mode 0 from 11 to 12
task_27: (start=14, end=19, size=5, length=5)
Task 27 is scheduled in mode 2 from 14 to 19
task_28: (start=15, end=21, size=6, length=6)
Task 28 is scheduled in mode 1 from 15 to 21
task_29: (start=20, end=22, size=2, length=2)
Task 29 is scheduled in mode 0 from 20 to 22
task_30: (start=14, end=17, size=3, length=3)
Task 30 is scheduled in mode 0 from 14 to 17
task_31: (start=12, end=13, size=1, length=1)
Task 31 is scheduled in mode 0 from 12 to 13
task_32: (start=17, end=20, size=3, length=3)
Task 32 is scheduled in mode 1 from 17 to 20
task_33: (start=17, end=22, size=5, length=5)
Task 33 is scheduled in mode 2 from 17 to 22
task_34: (start=21, end=24, size=3, length=3)
Task 34 is scheduled in mode 0 from 21 to 24
task_35: (start=22, end=24, size=2, length=2)
Task 35 is scheduled in mode 0 from 22 to 24
task_36: (start=14, end=24, size=10, length=10)
Task 36 is scheduled in mode 2 from 14 to 24
task_37: (start=19, end=21, size=2, length=2)
Task 37 is scheduled in mode 0 from 19 to 21
task_38: (start=14, end=24, size=10, length=10)
Task 38 is scheduled in mode 2 from 14 to 24
task_39: (start=22, end=24, size=2, length=2)
Task 39 is scheduled in mode 0 from 22 to 24
task_40: (start=14, end=20, size=6, length=6)
Task 40 is scheduled in mode 1 from 14 to 20
task_41: (start=22, end=24, size=2, length=2)
Task 41 is scheduled in mode 0 from 22 to 24
task_42: (start=15, end=22, size=7, length=7)
Task 42 is scheduled in mode 1 from 15 to 22
task_43: (start=14, end=22, size=8, length=8)
Task 43 is scheduled in mode 2 from 14 to 22
task_44: (start=12, end=13, size=1, length=1)
Task 44 is scheduled in mode 0 from 12 to 13
task_45: (start=13, end=14, size=1, length=1)
Task 45 is scheduled in mode 0 from 13 to 14
task_46: (start=13, end=14, size=1, length=1)
Task 46 is scheduled in mode 0 from 13 to 14
task_47: (start=21, end=24, size=3, length=3)
Task 47 is scheduled in mode 1 from 21 to 24
task_48: (start=12, end=15, size=3, length=3)
Task 48 is scheduled in mode 0 from 12 to 15
task_49: (start=12, end=14, size=2, length=2)
Task 49 is scheduled in mode 0 from 12 to 14
task_50: (start=14, end=21, size=7, length=7)
Task 50 is scheduled in mode 2 from 14 to 21
task_51: (start=24, end=24, size=0, length=0)
Task 51 is scheduled in mode 0 from 24 to 24
Feasible solution found
Objective value: 24
Solution is 20.0 % worse than the lower bound.
